10J3M/DAT/10J3MULR-17.dat
10 3
41.1148 17.8798
0.7082 27.0648
33.6214 49.3804
22.417 19.6795
27.1646 23.6454
21.2877 17.059
48.2366 11.7212
38.3132 26.617
2.0429 29.7379
17.154 35.6206
86.1352