10J3M/SOL/10J3MULR-17.sol
solution status: optimal solution found
objective value:                     70.4620666666667
x#1#1                                               1 	(obj:0)
x#2#1                               0.742843094786381 	(obj:0)
x#2#2                               0.257156905213619 	(obj:0)
x#3#2                                               1 	(obj:0)
x#4#3                                               1 	(obj:0)
x#5#1                                               1 	(obj:0)
x#6#2                               0.417313679410907 	(obj:0)
x#6#3                               0.582686320589093 	(obj:0)
x#7#1                               0.153711544664108 	(obj:0)
x#7#2                               0.846288455335892 	(obj:0)
x#8#3                                               1 	(obj:0)
x#9#3                                               1 	(obj:0)
x#10#2                              0.636269673383691 	(obj:0)
x#10#3                              0.363730326616309 	(obj:0)
z                                    70.4620666666667 	(obj:1)
